2 15
  0 160  13   5   6 139  11  99  12   9   5  98   2  28   1 107   3 196  10 165   7 114   4   7  14  34   8 133   9  76 
 14 105   7 160   3  19   2 189  11  25   1  95  12  15   0 122   4 165   9   2  10  66  13 111   8  51   6  83   5 183
